outputs/case_467.model.txt
approval_document_attached = False
investment_according_to_approval = False
branch_investment_amount = 120000000
head_office_investment_amount = 50000000
investment_limit_amount = 150000000
invested_stock = 1000000
invested_related_company_securities = 2000000
investment_approval_document_attached = False
no_document_concealment = True
investment_prohibited_related_company_securities = False
compliance_credit_and_transaction_limit = True
fund_usage_and_risk_management_complied = True
no_inspection_obstruction = True
no_inspection_evasion = True
credit_and_transaction_limit_complied = True
compliance_inspection = True
investment_limit_total = 0
no_document_destruction = True
penalty = False
investment_prohibited_stock = False
compliance_fund_usage_and_risk_management = True
no_inspection_refusal = True